c   #vars: 74   #clauses: 328   #literals: 904
c 
p cnf 74 328
-2 -3 0
29 30 -38 56 0
-5 -6 0
-8 -9 0
-10 -11 0
-12 -13 0
-32 38 39 56 0
40 41 61 62 0
10 11 40 41 0
-14 -15 0
-16 -17 0
-18 -19 0
4 29 30 -40 0
-20 -21 0
31 64 65 -71 0
-23 -24 0
-25 -26 0
-27 -28 0
-29 -30 0
19 -42 63 0
-32 -33 0
-34 -35 0
1 46 47 -53 0
10 11 59 60 0
-36 -37 0
44 45 54 55 0
7 34 35 -36 0
-38 -39 0
-40 -41 0
-42 -43 0
-44 -45 0
-46 -47 0
-48 -49 0
18 19 61 62 0
23 24 61 62 0
-50 -51 0
-52 -53 0
20 21 36 37 0
20 21 50 51 0
-54 -55 0
22 50 51 -59 0
20 21 -25 66 0
29 30 59 60 0
-57 -58 0
-59 -60 0
10 11 67 68 0
-61 -62 0
-25 48 49 66 0
-64 -65 0
1 57 58 -72 0
-67 -68 0
-69 -70 0
5 6 67 68 0
-71 -72 0
-73 -74 0
18 19 29 30 0
-1 -46 0
12 13 48 49 0
-1 -52 0
12 13 38 39 0
-1 -57 0
-1 -71 0
7 34 35 -52 0
-2 -25 0
-3 -26 0
14 15 54 55 0
-2 -40 0
-3 -41 0
8 9 71 72 0
-2 -42 0
-3 -43 0
-2 -59 0
-3 -60 0
29 30 -32 56 0
-4 -30 0
27 28 64 65 0
1 46 47 -72 0
-4 -33 0
8 9 73 74 0
1 -47 71 72 0
-4 -41 0
14 15 38 39 0
-5 -40 0
-6 -41 0
-5 -48 0
-6 -49 0
-5 -50 0
-6 -51 0
-5 -64 0
-6 -65 0
46 47 69 70 0
-5 -67 0
-6 -68 0
-7 -35 0
1 -58 71 72 0
-7 -37 0
1 52 53 -58 0
4 -29 32 33 0
-7 -53 0
5 6 50 51 0
7 36 37 -52 0
-18 27 28 63 0
18 19 -27 63 0
-9 -31 0
25 26 73 74 0
1 -53 57 58 0
-8 -71 0
-9 -72 0
-8 -73 0
-9 -74 0
-10 -29 0
-11 -30 0
20 21 34 35 0
-10 -40 0
-11 -41 0
31 -64 71 72 0
-10 -46 0
-11 -47 0
40 41 52 53 0
7 -34 36 37 0
20 21 69 70 0
-10 -59 0
-11 -60 0
32 33 69 70 0
-10 -67 0
-11 -68 0
20 21 57 58 0
-10 -73 0
-11 -74 0
-12 -27 0
-13 -28 0
-12 -34 0
-13 -35 0
1 52 53 -72 0
-12 -38 0
-13 -39 0
-12 -48 0
-13 -49 0
2 3 40 41 0
-12 -71 0
-13 -72 0
16 17 52 53 0
-29 32 33 56 0
22 -44 50 51 0
29 30 54 55 0
10 11 29 30 0
-14 -27 0
-15 -28 0
-14 -38 0
-15 -39 0
18 19 50 51 0
-14 -52 0
-15 -53 0
18 19 42 43 0
-14 -54 0
-15 -55 0
20 21 -48 66 0
48 49 59 60 0
22 -44 59 60 0
42 43 71 72 0
-14 -69 0
-15 -70 0
2 3 25 26 0
-16 -42 0
-17 -43 0
-16 -52 0
-17 -53 0
5 6 40 41 0
-16 -57 0
-17 -58 0
-16 -59 0
-17 -60 0
23 24 57 58 0
-18 -29 0
-19 -30 0
-18 -42 0
-19 -43 0
36 37 57 58 0
-18 -50 0
-19 -51 0
23 24 44 45 0
-18 -61 0
-19 -62 0
36 37 73 74 0
-20 48 49 66 0
-19 -63 0
27 28 59 60 0
1 -47 57 58 0
4 29 30 -32 0
22 44 45 -59 0
1 -53 71 72 0
32 33 73 74 0
22 -50 59 60 0
4 32 33 -40 0
22 44 45 -50 0
34 35 52 53 0
-20 -34 0
-21 -35 0
1 46 47 -58 0
-20 -36 0
-21 -37 0
14 15 27 28 0
4 -29 40 41 0
16 17 57 58 0
-20 -50 0
-21 -51 0
44 45 64 65 0
-20 -57 0
-21 -58 0
-21 -66 0
12 13 71 72 0
-20 -69 0
-21 -70 0
5 6 64 65 0
-8 31 64 65 0
-22 -45 0
7 -34 52 53 0
9 31 -71 0
-22 -51 0
32 33 54 55 0
8 9 31 -64 0
-22 -60 0
23 24 34 35 0
-23 -29 0
-24 -30 0
34 35 69 70 0
-23 -34 0
-24 -35 0
-23 -44 0
-24 -45 0
12 13 34 35 0
-23 -54 0
-24 -55 0
27 28 -42 63 0
-23 -57 0
-24 -58 0
-23 -61 0
-24 -62 0
-25 -59 0
-26 -60 0
16 17 59 60 0
-26 -66 0
40 41 67 68 0
-25 -73 0
-26 -74 0
-27 -59 0
-28 -60 0
25 26 -48 66 0
-28 -63 0
46 47 67 68 0
-27 -64 0
-28 -65 0
-27 -67 0
-28 -68 0
-29 -54 0
-30 -55 0
5 6 48 49 0
-30 -56 0
10 11 73 74 0
-29 -59 0
-30 -60 0
23 24 29 30 0
-27 42 43 63 0
-31 -65 0
-8 31 72 0
-18 43 63 0
-31 -72 0
16 17 42 43 0
-32 -54 0
-33 -55 0
7 -36 52 53 0
-33 -56 0
2 3 42 43 0
-32 -69 0
-33 -70 0
1 -47 52 53 0
-32 -73 0
-33 -74 0
14 15 52 53 0
-34 -52 0
-35 -53 0
-34 -69 0
-35 -70 0
14 15 69 70 0
-29 38 39 56 0
4 -32 40 41 0
-36 -57 0
-37 -58 0
2 3 59 60 0
-36 -73 0
-37 -74 0
50 51 61 62 0
-39 -56 0
-38 -61 0
-39 -62 0
23 24 54 55 0
-40 -52 0
-41 -53 0
10 11 46 47 0
-40 -61 0
-41 -62 0
-40 -67 0
-41 -68 0
40 41 73 74 0
-40 -73 0
-41 -74 0
27 28 67 68 0
-20 25 26 66 0
-43 -63 0
-42 -71 0
-43 -72 0
-44 -54 0
-45 -55 0
38 39 61 62 0
-44 -64 0
-45 -65 0
-46 -67 0
-47 -68 0
12 13 27 28 0
-46 -69 0
-47 -70 0
25 26 59 60 0
-48 -59 0
-49 -60 0
-49 -66 0
32 33 -38 56 0
-50 -61 0
-51 -62 0
